Instance name: /mnt/c/Users/ORG/CLionProjects/uMV-FSTSP/Murray_Chu_2015_test_data/FSTSP/FSTSP_10_customer_problems/20140810T123437v2

drone speed: 0.2 miles/minute
uav non-eligible customer: 10 
Printing number of nodes: 11

Set parameter Threads to value 20
Gurobi Optimizer version 11.0.0 build v11.0.0rc2 (linux64 - "Ubuntu 22.04.3 LTS")

CPU model: 13th Gen Intel(R) Core(TM) i5-13500, instruction set [SSE2|AVX|AVX2]
Thread count: 10 physical cores, 20 logical processors, using up to 20 threads

Optimize a model with 6191 rows, 1825 columns and 197592 nonzeros
Model fingerprint: 0x0e39109c
Variable types: 11 continuous, 1814 integer (1814 binary)
Coefficient statistics:
  Matrix range     [8e-01, 3e+01]
  Objective range  [8e-01, 2e+01]
  Bounds range     [1e+00, 1e+00]
  RHS range        [1e+00, 8e+00]
Found heuristic solution: objective 112.8454206
Presolve removed 906 rows and 1072 columns
Presolve time: 0.36s
Presolved: 5285 rows, 753 columns, 150892 nonzeros
Variable types: 8 continuous, 745 integer (745 binary)

Root relaxation: objective 4.909239e+01, 1056 iterations, 0.08 seconds (0.22 work units)

    Nodes    |    Current Node    |     Objective Bounds      |     Work
 Expl Unexpl |  Obj  Depth IntInf | Incumbent    BestBd   Gap | It/Node Time

     0     0   49.09239    0  116  112.84542   49.09239  56.5%     -    0s
H    0     0                      71.6929395   49.09239  31.5%     -    0s
H    0     0                      66.6475273   49.09239  26.3%     -    0s
H    0     0                      64.5176085   49.09239  23.9%     -    0s
H    0     0                      54.1840397   49.09239  9.40%     -    0s
     0     0   50.67809    0  133   54.18404   50.67809  6.47%     -    0s
     0     0   50.69885    0  134   54.18404   50.69885  6.43%     -    0s
     0     0   50.69885    0  133   54.18404   50.69885  6.43%     -    0s
     0     0   50.77144    0  117   54.18404   50.77144  6.30%     -    0s
     0     0   51.36886    0   83   54.18404   51.36886  5.20%     -    1s
     0     0   51.36886    0  119   54.18404   51.36886  5.20%     -    1s
     0     0   51.36886    0  109   54.18404   51.36886  5.20%     -    1s
     0     0   52.75611    0  112   54.18404   52.75611  2.64%     -    1s
     0     0   52.94515    0  104   54.18404   52.94515  2.29%     -    1s
     0     0   52.94515    0  103   54.18404   52.94515  2.29%     -    1s
     0     0   52.94515    0  105   54.18404   52.94515  2.29%     -    1s
     0     0   53.23247    0  107   54.18404   53.23247  1.76%     -    2s
     0     0   53.23295    0  118   54.18404   53.23295  1.76%     -    2s
H    0     0                      54.1576085   53.23852  1.70%     -    2s
H    0     0                      53.7932704   53.23852  1.03%     -    2s
     0     0   53.23852    0  121   53.79327   53.23852  1.03%     -    2s

Cutting planes:
  Gomory: 6
  Cover: 4
  Clique: 14
  MIR: 3
  StrongCG: 2
  GUB cover: 1
  Zero half: 13
  RLT: 4

Explored 1 nodes (3595 simplex iterations) in 2.27 seconds (3.98 work units)
Thread count was 20 (of 20 available processors)

Solution count 8: 53.7933 54.1576 54.184 ... 112.845

Optimal solution found (tolerance 1.00e-04)
Best objective 5.379327036642e+01, best bound 5.379327036642e+01, gap 0.0000%
